p td 80 73
0 43
0 47
1 7
1 51
2 27
2 50
3 72
3 77
4 25
4 26
5 13
5 56
5 68
7 45
7 47
7 51
8 48
10 16
10 65
10 73
11 14
15 22
16 68
17 54
17 67
18 52
19 33
20 46
20 51
20 59
21 29
22 33
22 66
22 67
23 45
23 58
25 31
25 36
28 64
29 45
29 63
29 69
30 60
30 64
30 69
31 54
31 61
35 49
36 48
37 38
38 55
39 47
39 65
45 48
46 79
47 60
47 79
49 51
52 77
54 67
54 78
55 76
56 64
59 66
59 70
63 78
63 79
65 70
66 72
68 74
69 70
70 71
73 74
